(set-info :smt-lib-version 2.6)
(set-logic QF_LRA)
(set-info :source |
SAL benchmark suite.  Created at SRI by Bruno Dutertre, John Rushby, Maria
Sorea, and Leonardo de Moura.  Contact demoura@csl.sri.com for more
information.

This benchmark was automatically translated into SMT-LIB format from
CVC format using CVC Lite
|)
(set-info :category "industrial")
(set-info :status unsat)
(declare-fun x_0 () Bool)
(declare-fun x_1 () Bool)
(declare-fun x_2 () Real)
(declare-fun x_3 () Real)
(declare-fun x_4 () Bool)
(declare-fun x_5 () Bool)
(declare-fun x_6 () Real)
(declare-fun x_7 () Real)
(declare-fun x_8 () Bool)
(declare-fun x_9 () Real)
(declare-fun x_10 () Real)
(declare-fun x_11 () Real)
(declare-fun x_12 () Real)
(declare-fun x_13 () Real)
(declare-fun x_14 () Bool)
(declare-fun x_15 () Bool)
(declare-fun x_16 () Real)
(declare-fun x_17 () Real)
(declare-fun x_18 () Real)
(declare-fun x_19 () Real)
(declare-fun x_20 () Real)
(declare-fun x_21 () Real)
(declare-fun x_22 () Real)
(declare-fun x_23 () Bool)
(declare-fun x_24 () Bool)
(declare-fun x_25 () Real)
(declare-fun x_26 () Real)
(declare-fun x_27 () Real)
(declare-fun x_28 () Real)
(declare-fun x_29 () Real)
(declare-fun x_30 () Real)
(declare-fun x_31 () Real)
(declare-fun x_32 () Bool)
(declare-fun x_33 () Bool)
(declare-fun x_34 () Real)
(declare-fun x_35 () Real)
(declare-fun x_36 () Real)
(declare-fun x_37 () Real)
(declare-fun x_38 () Real)
(declare-fun x_39 () Real)
(declare-fun x_40 () Real)
(declare-fun x_41 () Bool)
(declare-fun x_42 () Bool)
(declare-fun x_43 () Real)
(declare-fun x_44 () Real)
(declare-fun x_45 () Real)
(declare-fun x_46 () Real)
(declare-fun x_47 () Real)
(declare-fun x_48 () Real)
(declare-fun x_49 () Real)
(declare-fun x_50 () Bool)
(declare-fun x_51 () Bool)
(declare-fun x_52 () Real)
(declare-fun x_53 () Real)
(declare-fun x_54 () Real)
(declare-fun x_55 () Real)
(declare-fun x_56 () Real)
(declare-fun x_57 () Real)
(declare-fun x_58 () Real)
(declare-fun x_59 () Bool)
(declare-fun x_60 () Bool)
(declare-fun x_61 () Real)
(declare-fun x_62 () Real)
(declare-fun x_63 () Real)
(declare-fun x_64 () Real)
(declare-fun x_65 () Real)
(declare-fun x_66 () Real)
(declare-fun x_67 () Real)
(declare-fun x_68 () Bool)
(declare-fun x_69 () Bool)
(declare-fun x_70 () Real)
(declare-fun x_71 () Real)
(declare-fun x_72 () Real)
(declare-fun x_73 () Real)
(declare-fun x_74 () Real)
(declare-fun x_75 () Real)
(assert (let ((?v_3 (= x_61 40)) (?v_28 (+ x_61 (* x_63 6))) (?v_4 (= x_61 0)) (?v_2 (= x_58 40)) (?v_6 (= x_58 0)) (?v_13 (< (+ (- (* x_61 5) (* x_58 6)) 40) 0)) (?v_31 (+ x_58 (* x_63 5))) (?v_29 (+ x_62 x_63)) (?v_10 (= x_62 2)) (?v_7 (= x_67 x_58)) (?v_24 (not x_59))) (let ((?v_30 (and ?v_24 x_60)) (?v_15 (not x_60))) (let ((?v_18 (and x_59 ?v_15)) (?v_5 (and (= x_68 x_59) (= x_69 x_60))) (?v_8 (= x_70 x_61)) (?v_1 (and ?v_24 ?v_15)) (?v_14 (= x_71 0)) (?v_21 (not x_68))) (let ((?v_17 (and ?v_21 x_69)) (?v_0 (= x_64 0)) (?v_12 (not ?v_2)) (?v_9 (= x_71 x_62)) (?v_27 (or ?v_24 x_60)) (?v_11 (not ?v_6)) (?v_26 (or x_59 x_60)) (?v_20 (not ?v_13)) (?v_16 (or ?v_6 ?v_2)) (?v_19 (= x_70 (ite ?v_3 0 (ite ?v_4 40 x_61)))) (?v_25 (and (and (<= ?v_29 2) (not (< ?v_31 0))) (<= ?v_28 40))) (?v_36 (= x_52 40)) (?v_58 (+ x_52 (* x_54 6))) (?v_37 (= x_52 0)) (?v_35 (= x_49 40)) (?v_39 (= x_49 0)) (?v_46 (< (+ (- (* x_52 5) (* x_49 6)) 40) 0)) (?v_61 (+ x_49 (* x_54 5))) (?v_59 (+ x_53 x_54)) (?v_43 (= x_53 2)) (?v_40 (= x_58 x_49)) (?v_54 (not x_50))) (let ((?v_60 (and ?v_54 x_51)) (?v_48 (not x_51))) (let ((?v_50 (and x_50 ?v_48)) (?v_38 (and (= x_59 x_50) (= x_60 x_51))) (?v_41 (= x_61 x_52)) (?v_34 (and ?v_54 ?v_48)) (?v_47 (= x_62 0)) (?v_33 (= x_55 0)) (?v_45 (not ?v_35)) (?v_42 (= x_62 x_53)) (?v_57 (or ?v_54 x_51)) (?v_44 (not ?v_39)) (?v_56 (or x_50 x_51)) (?v_52 (not ?v_46)) (?v_49 (or ?v_39 ?v_35)) (?v_51 (= x_61 (ite ?v_36 0 (ite ?v_37 40 x_52)))) (?v_55 (and (and (<= ?v_59 2) (not (< ?v_61 0))) (<= ?v_58 40))) (?v_66 (= x_43 40)) (?v_88 (+ x_43 (* x_45 6))) (?v_67 (= x_43 0)) (?v_65 (= x_40 40)) (?v_69 (= x_40 0)) (?v_76 (< (+ (- (* x_43 5) (* x_40 6)) 40) 0)) (?v_91 (+ x_40 (* x_45 5))) (?v_89 (+ x_44 x_45)) (?v_73 (= x_44 2)) (?v_70 (= x_49 x_40)) (?v_84 (not x_41))) (let ((?v_90 (and ?v_84 x_42)) (?v_78 (not x_42))) (let ((?v_80 (and x_41 ?v_78)) (?v_68 (and (= x_50 x_41) (= x_51 x_42))) (?v_71 (= x_52 x_43)) (?v_64 (and ?v_84 ?v_78)) (?v_77 (= x_53 0)) (?v_63 (= x_46 0)) (?v_75 (not ?v_65)) (?v_72 (= x_53 x_44)) (?v_87 (or ?v_84 x_42)) (?v_74 (not ?v_69)) (?v_86 (or x_41 x_42)) (?v_82 (not ?v_76)) (?v_79 (or ?v_69 ?v_65)) (?v_81 (= x_52 (ite ?v_66 0 (ite ?v_67 40 x_43)))) (?v_85 (and (and (<= ?v_89 2) (not (< ?v_91 0))) (<= ?v_88 40))) (?v_96 (= x_34 40)) (?v_118 (+ x_34 (* x_36 6))) (?v_97 (= x_34 0)) (?v_95 (= x_31 40)) (?v_99 (= x_31 0)) (?v_106 (< (+ (- (* x_34 5) (* x_31 6)) 40) 0)) (?v_121 (+ x_31 (* x_36 5))) (?v_119 (+ x_35 x_36)) (?v_103 (= x_35 2)) (?v_100 (= x_40 x_31)) (?v_114 (not x_32))) (let ((?v_120 (and ?v_114 x_33)) (?v_108 (not x_33))) (let ((?v_110 (and x_32 ?v_108)) (?v_98 (and (= x_41 x_32) (= x_42 x_33))) (?v_101 (= x_43 x_34)) (?v_94 (and ?v_114 ?v_108)) (?v_107 (= x_44 0)) (?v_93 (= x_37 0)) (?v_105 (not ?v_95)) (?v_102 (= x_44 x_35)) (?v_117 (or ?v_114 x_33)) (?v_104 (not ?v_99)) (?v_116 (or x_32 x_33)) (?v_112 (not ?v_106)) (?v_109 (or ?v_99 ?v_95)) (?v_111 (= x_43 (ite ?v_96 0 (ite ?v_97 40 x_34)))) (?v_115 (and (and (<= ?v_119 2) (not (< ?v_121 0))) (<= ?v_118 40))) (?v_126 (= x_25 40)) (?v_148 (+ x_25 (* x_27 6))) (?v_127 (= x_25 0)) (?v_125 (= x_22 40)) (?v_129 (= x_22 0)) (?v_136 (< (+ (- (* x_25 5) (* x_22 6)) 40) 0)) (?v_151 (+ x_22 (* x_27 5))) (?v_149 (+ x_26 x_27)) (?v_133 (= x_26 2)) (?v_130 (= x_31 x_22)) (?v_144 (not x_23))) (let ((?v_150 (and ?v_144 x_24)) (?v_138 (not x_24))) (let ((?v_140 (and x_23 ?v_138)) (?v_128 (and (= x_32 x_23) (= x_33 x_24))) (?v_131 (= x_34 x_25)) (?v_124 (and ?v_144 ?v_138)) (?v_137 (= x_35 0)) (?v_123 (= x_28 0)) (?v_135 (not ?v_125)) (?v_132 (= x_35 x_26)) (?v_147 (or ?v_144 x_24)) (?v_134 (not ?v_129)) (?v_146 (or x_23 x_24)) (?v_142 (not ?v_136)) (?v_139 (or ?v_129 ?v_125)) (?v_141 (= x_34 (ite ?v_126 0 (ite ?v_127 40 x_25)))) (?v_145 (and (and (<= ?v_149 2) (not (< ?v_151 0))) (<= ?v_148 40))) (?v_156 (= x_16 40)) (?v_178 (+ x_16 (* x_18 6))) (?v_157 (= x_16 0)) (?v_155 (= x_13 40)) (?v_159 (= x_13 0)) (?v_166 (< (+ (- (* x_16 5) (* x_13 6)) 40) 0)) (?v_181 (+ x_13 (* x_18 5))) (?v_179 (+ x_17 x_18)) (?v_163 (= x_17 2)) (?v_160 (= x_22 x_13)) (?v_174 (not x_14))) (let ((?v_180 (and ?v_174 x_15)) (?v_168 (not x_15))) (let ((?v_170 (and x_14 ?v_168)) (?v_158 (and (= x_23 x_14) (= x_24 x_15))) (?v_161 (= x_25 x_16)) (?v_154 (and ?v_174 ?v_168)) (?v_167 (= x_26 0)) (?v_153 (= x_19 0)) (?v_165 (not ?v_155)) (?v_162 (= x_26 x_17)) (?v_177 (or ?v_174 x_15)) (?v_164 (not ?v_159)) (?v_176 (or x_14 x_15)) (?v_172 (not ?v_166)) (?v_169 (or ?v_159 ?v_155)) (?v_171 (= x_25 (ite ?v_156 0 (ite ?v_157 40 x_16)))) (?v_175 (and (and (<= ?v_179 2) (not (< ?v_181 0))) (<= ?v_178 40))) (?v_186 (= x_6 40)) (?v_208 (+ x_6 (* x_9 6))) (?v_187 (= x_6 0)) (?v_185 (= x_3 40)) (?v_189 (= x_3 0)) (?v_196 (< (+ (- (* x_6 5) (* x_3 6)) 40) 0)) (?v_211 (+ x_3 (* x_9 5))) (?v_209 (+ x_7 x_9)) (?v_193 (= x_7 2)) (?v_190 (= x_13 x_3)) (?v_204 (not x_4))) (let ((?v_210 (and ?v_204 x_5)) (?v_198 (not x_5))) (let ((?v_200 (and x_4 ?v_198)) (?v_188 (and (= x_14 x_4) (= x_15 x_5))) (?v_191 (= x_16 x_6)) (?v_184 (and ?v_204 ?v_198)) (?v_197 (= x_17 0)) (?v_183 (= x_10 0)) (?v_195 (not ?v_185)) (?v_192 (= x_17 x_7)) (?v_207 (or ?v_204 x_5)) (?v_194 (not ?v_189)) (?v_206 (or x_4 x_5)) (?v_202 (not ?v_196)) (?v_199 (or ?v_189 ?v_185)) (?v_201 (= x_16 (ite ?v_186 0 (ite ?v_187 40 x_6)))) (?v_205 (and (and (<= ?v_209 2) (not (< ?v_211 0))) (<= ?v_208 40))) (?v_216 (= 10 40)) (?v_236 (+ 10 (* x_2 6))) (?v_217 (= 10 0)) (?v_215 (= 20 40)) (?v_219 (= 20 0)) (?v_225 (< (+ (- (* 10 5) (* 20 6)) 40) 0)) (?v_239 (+ 20 (* x_2 5))) (?v_237 (+ 2 x_2)) (?v_222 (= 2 2)) (?v_220 (= x_3 20)) (?v_232 (not x_0))) (let ((?v_238 (and ?v_232 x_1)) (?v_227 (not x_1))) (let ((?v_229 (and x_0 ?v_227)) (?v_218 (and (= x_4 x_0) (= x_5 x_1))) (?v_221 (= x_6 10)) (?v_213 (and ?v_232 ?v_227)) (?v_226 (= x_7 0)) (?v_214 (not x_8)) (?v_224 (not ?v_215)) (?v_235 (or ?v_232 x_1)) (?v_223 (not ?v_219)) (?v_234 (or x_0 x_1)) (?v_231 (not ?v_225)) (?v_228 (or ?v_219 ?v_215)) (?v_230 (= x_6 (ite ?v_216 0 (ite ?v_217 40 10)))) (?v_233 (and (and (<= ?v_237 2) (not (< ?v_239 0))) (<= ?v_236 40))) (?v_23 (= x_64 1)) (?v_22 (not x_69)) (?v_32 (not (< x_63 0))) (?v_53 (= x_55 1)) (?v_62 (not (< x_54 0))) (?v_83 (= x_46 1)) (?v_92 (not (< x_45 0))) (?v_113 (= x_37 1)) (?v_122 (not (< x_36 0))) (?v_143 (= x_28 1)) (?v_152 (not (< x_27 0))) (?v_173 (= x_19 1)) (?v_182 (not (< x_18 0))) (?v_203 (= x_10 1)) (?v_212 (not (< x_9 0)))) (and (and (and (and (and (and (and (and (and (and (and (and (and (and (and (and (and (and (and (and (and (and (and (and (and (and (and (and (and (and (and (and (and (and (and (and (and (and (and (and (and (and (and (and (and (and (and (and (and (and (and (and (and (and (and (and (and (and (<= x_73 1) (>= x_73 0)) (<= x_64 1)) (>= x_64 0)) (<= x_55 1)) (>= x_55 0)) (<= x_46 1)) (>= x_46 0)) (<= x_37 1)) (>= x_37 0)) (<= x_28 1)) (>= x_28 0)) (<= x_19 1)) (>= x_19 0)) (<= x_10 1)) (>= x_10 0)) ?v_213) (not (< x_72 0))) (= x_73 (ite ?v_23 0 1))) (not (< x_74 0))) (or (or (or (or (or (or (or (or (and (and (and (and (and (and (and (and (and (and (= x_75 0) ?v_0) ?v_1) ?v_10) ?v_11) ?v_12) ?v_13) ?v_14) ?v_7) ?v_8) ?v_5) (and (and (and (and (and (and (and (= x_75 1) ?v_0) ?v_1) (or (or ?v_2 ?v_4) ?v_3)) (= x_67 (ite ?v_2 0 x_58))) ?v_19) ?v_5) ?v_9)) (and (and (and (and (and (and (and (= x_75 2) ?v_0) ?v_1) ?v_16) ?v_17) ?v_7) ?v_8) ?v_9)) (and (and (and (and (and (and (and (and (and (and (and (= x_75 3) ?v_0) ?v_1) ?v_10) ?v_11) ?v_12) ?v_20) x_68) ?v_22) ?v_14) ?v_7) ?v_8)) (and (and (and (and (and (and (and (= x_75 4) ?v_0) ?v_18) ?v_16) ?v_17) ?v_7) ?v_8) ?v_9)) (and (and (and (and (and (and (and (= x_75 5) ?v_0) ?v_18) (or (or ?v_6 ?v_4) ?v_3)) (= x_67 (ite ?v_6 40 x_58))) ?v_19) ?v_5) ?v_9)) (and (and (and (and (and (and (and (and (and (and (= x_75 6) ?v_0) ?v_18) ?v_10) ?v_11) ?v_12) ?v_20) ?v_14) ?v_7) ?v_8) ?v_5)) (and (and (and (and (and (and (and (and (and (and (and (= x_75 7) ?v_0) ?v_18) ?v_10) ?v_11) ?v_12) ?v_13) ?v_21) ?v_22) ?v_14) ?v_7) ?v_8)) (and (and (and (and (and (and (and (and (and (= x_75 8) ?v_23) ?v_32) (or ?v_26 ?v_25)) (or ?v_27 ?v_25)) (or (and ?v_26 ?v_27) (and (not (< (* x_74 2) (- (* x_61 2) x_63))) (<= x_74 ?v_28)))) (= x_71 (ite ?v_30 x_62 ?v_29))) (= x_67 (ite ?v_30 x_58 ?v_31))) (= x_70 (ite ?v_30 x_61 x_74))) ?v_5))) ?v_32) (= x_64 (ite ?v_53 0 1))) (not (< x_65 0))) (or (or (or (or (or (or (or (or (and (and (and (and (and (and (and (and (and (and (= x_66 0) ?v_33) ?v_34) ?v_43) ?v_44) ?v_45) ?v_46) ?v_47) ?v_40) ?v_41) ?v_38) (and (and (and (and (and (and (and (= x_66 1) ?v_33) ?v_34) (or (or ?v_35 ?v_37) ?v_36)) (= x_58 (ite ?v_35 0 x_49))) ?v_51) ?v_38) ?v_42)) (and (and (and (and (and (and (and (= x_66 2) ?v_33) ?v_34) ?v_49) ?v_30) ?v_40) ?v_41) ?v_42)) (and (and (and (and (and (and (and (and (and (and (and (= x_66 3) ?v_33) ?v_34) ?v_43) ?v_44) ?v_45) ?v_52) x_59) ?v_15) ?v_47) ?v_40) ?v_41)) (and (and (and (and (and (and (and (= x_66 4) ?v_33) ?v_50) ?v_49) ?v_30) ?v_40) ?v_41) ?v_42)) (and (and (and (and (and (and (and (= x_66 5) ?v_33) ?v_50) (or (or ?v_39 ?v_37) ?v_36)) (= x_58 (ite ?v_39 40 x_49))) ?v_51) ?v_38) ?v_42)) (and (and (and (and (and (and (and (and (and (and (= x_66 6) ?v_33) ?v_50) ?v_43) ?v_44) ?v_45) ?v_52) ?v_47) ?v_40) ?v_41) ?v_38)) (and (and (and (and (and (and (and (and (and (and (and (= x_66 7) ?v_33) ?v_50) ?v_43) ?v_44) ?v_45) ?v_46) ?v_24) ?v_15) ?v_47) ?v_40) ?v_41)) (and (and (and (and (and (and (and (and (and (= x_66 8) ?v_53) ?v_62) (or ?v_56 ?v_55)) (or ?v_57 ?v_55)) (or (and ?v_56 ?v_57) (and (not (< (* x_65 2) (- (* x_52 2) x_54))) (<= x_65 ?v_58)))) (= x_62 (ite ?v_60 x_53 ?v_59))) (= x_58 (ite ?v_60 x_49 ?v_61))) (= x_61 (ite ?v_60 x_52 x_65))) ?v_38))) ?v_62) (= x_55 (ite ?v_83 0 1))) (not (< x_56 0))) (or (or (or (or (or (or (or (or (and (and (and (and (and (and (and (and (and (and (= x_57 0) ?v_63) ?v_64) ?v_73) ?v_74) ?v_75) ?v_76) ?v_77) ?v_70) ?v_71) ?v_68) (and (and (and (and (and (and (and (= x_57 1) ?v_63) ?v_64) (or (or ?v_65 ?v_67) ?v_66)) (= x_49 (ite ?v_65 0 x_40))) ?v_81) ?v_68) ?v_72)) (and (and (and (and (and (and (and (= x_57 2) ?v_63) ?v_64) ?v_79) ?v_60) ?v_70) ?v_71) ?v_72)) (and (and (and (and (and (and (and (and (and (and (and (= x_57 3) ?v_63) ?v_64) ?v_73) ?v_74) ?v_75) ?v_82) x_50) ?v_48) ?v_77) ?v_70) ?v_71)) (and (and (and (and (and (and (and (= x_57 4) ?v_63) ?v_80) ?v_79) ?v_60) ?v_70) ?v_71) ?v_72)) (and (and (and (and (and (and (and (= x_57 5) ?v_63) ?v_80) (or (or ?v_69 ?v_67) ?v_66)) (= x_49 (ite ?v_69 40 x_40))) ?v_81) ?v_68) ?v_72)) (and (and (and (and (and (and (and (and (and (and (= x_57 6) ?v_63) ?v_80) ?v_73) ?v_74) ?v_75) ?v_82) ?v_77) ?v_70) ?v_71) ?v_68)) (and (and (and (and (and (and (and (and (and (and (and (= x_57 7) ?v_63) ?v_80) ?v_73) ?v_74) ?v_75) ?v_76) ?v_54) ?v_48) ?v_77) ?v_70) ?v_71)) (and (and (and (and (and (and (and (and (and (= x_57 8) ?v_83) ?v_92) (or ?v_86 ?v_85)) (or ?v_87 ?v_85)) (or (and ?v_86 ?v_87) (and (not (< (* x_56 2) (- (* x_43 2) x_45))) (<= x_56 ?v_88)))) (= x_53 (ite ?v_90 x_44 ?v_89))) (= x_49 (ite ?v_90 x_40 ?v_91))) (= x_52 (ite ?v_90 x_43 x_56))) ?v_68))) ?v_92) (= x_46 (ite ?v_113 0 1))) (not (< x_47 0))) (or (or (or (or (or (or (or (or (and (and (and (and (and (and (and (and (and (and (= x_48 0) ?v_93) ?v_94) ?v_103) ?v_104) ?v_105) ?v_106) ?v_107) ?v_100) ?v_101) ?v_98) (and (and (and (and (and (and (and (= x_48 1) ?v_93) ?v_94) (or (or ?v_95 ?v_97) ?v_96)) (= x_40 (ite ?v_95 0 x_31))) ?v_111) ?v_98) ?v_102)) (and (and (and (and (and (and (and (= x_48 2) ?v_93) ?v_94) ?v_109) ?v_90) ?v_100) ?v_101) ?v_102)) (and (and (and (and (and (and (and (and (and (and (and (= x_48 3) ?v_93) ?v_94) ?v_103) ?v_104) ?v_105) ?v_112) x_41) ?v_78) ?v_107) ?v_100) ?v_101)) (and (and (and (and (and (and (and (= x_48 4) ?v_93) ?v_110) ?v_109) ?v_90) ?v_100) ?v_101) ?v_102)) (and (and (and (and (and (and (and (= x_48 5) ?v_93) ?v_110) (or (or ?v_99 ?v_97) ?v_96)) (= x_40 (ite ?v_99 40 x_31))) ?v_111) ?v_98) ?v_102)) (and (and (and (and (and (and (and (and (and (and (= x_48 6) ?v_93) ?v_110) ?v_103) ?v_104) ?v_105) ?v_112) ?v_107) ?v_100) ?v_101) ?v_98)) (and (and (and (and (and (and (and (and (and (and (and (= x_48 7) ?v_93) ?v_110) ?v_103) ?v_104) ?v_105) ?v_106) ?v_84) ?v_78) ?v_107) ?v_100) ?v_101)) (and (and (and (and (and (and (and (and (and (= x_48 8) ?v_113) ?v_122) (or ?v_116 ?v_115)) (or ?v_117 ?v_115)) (or (and ?v_116 ?v_117) (and (not (< (* x_47 2) (- (* x_34 2) x_36))) (<= x_47 ?v_118)))) (= x_44 (ite ?v_120 x_35 ?v_119))) (= x_40 (ite ?v_120 x_31 ?v_121))) (= x_43 (ite ?v_120 x_34 x_47))) ?v_98))) ?v_122) (= x_37 (ite ?v_143 0 1))) (not (< x_38 0))) (or (or (or (or (or (or (or (or (and (and (and (and (and (and (and (and (and (and (= x_39 0) ?v_123) ?v_124) ?v_133) ?v_134) ?v_135) ?v_136) ?v_137) ?v_130) ?v_131) ?v_128) (and (and (and (and (and (and (and (= x_39 1) ?v_123) ?v_124) (or (or ?v_125 ?v_127) ?v_126)) (= x_31 (ite ?v_125 0 x_22))) ?v_141) ?v_128) ?v_132)) (and (and (and (and (and (and (and (= x_39 2) ?v_123) ?v_124) ?v_139) ?v_120) ?v_130) ?v_131) ?v_132)) (and (and (and (and (and (and (and (and (and (and (and (= x_39 3) ?v_123) ?v_124) ?v_133) ?v_134) ?v_135) ?v_142) x_32) ?v_108) ?v_137) ?v_130) ?v_131)) (and (and (and (and (and (and (and (= x_39 4) ?v_123) ?v_140) ?v_139) ?v_120) ?v_130) ?v_131) ?v_132)) (and (and (and (and (and (and (and (= x_39 5) ?v_123) ?v_140) (or (or ?v_129 ?v_127) ?v_126)) (= x_31 (ite ?v_129 40 x_22))) ?v_141) ?v_128) ?v_132)) (and (and (and (and (and (and (and (and (and (and (= x_39 6) ?v_123) ?v_140) ?v_133) ?v_134) ?v_135) ?v_142) ?v_137) ?v_130) ?v_131) ?v_128)) (and (and (and (and (and (and (and (and (and (and (and (= x_39 7) ?v_123) ?v_140) ?v_133) ?v_134) ?v_135) ?v_136) ?v_114) ?v_108) ?v_137) ?v_130) ?v_131)) (and (and (and (and (and (and (and (and (and (= x_39 8) ?v_143) ?v_152) (or ?v_146 ?v_145)) (or ?v_147 ?v_145)) (or (and ?v_146 ?v_147) (and (not (< (* x_38 2) (- (* x_25 2) x_27))) (<= x_38 ?v_148)))) (= x_35 (ite ?v_150 x_26 ?v_149))) (= x_31 (ite ?v_150 x_22 ?v_151))) (= x_34 (ite ?v_150 x_25 x_38))) ?v_128))) ?v_152) (= x_28 (ite ?v_173 0 1))) (not (< x_29 0))) (or (or (or (or (or (or (or (or (and (and (and (and (and (and (and (and (and (and (= x_30 0) ?v_153) ?v_154) ?v_163) ?v_164) ?v_165) ?v_166) ?v_167) ?v_160) ?v_161) ?v_158) (and (and (and (and (and (and (and (= x_30 1) ?v_153) ?v_154) (or (or ?v_155 ?v_157) ?v_156)) (= x_22 (ite ?v_155 0 x_13))) ?v_171) ?v_158) ?v_162)) (and (and (and (and (and (and (and (= x_30 2) ?v_153) ?v_154) ?v_169) ?v_150) ?v_160) ?v_161) ?v_162)) (and (and (and (and (and (and (and (and (and (and (and (= x_30 3) ?v_153) ?v_154) ?v_163) ?v_164) ?v_165) ?v_172) x_23) ?v_138) ?v_167) ?v_160) ?v_161)) (and (and (and (and (and (and (and (= x_30 4) ?v_153) ?v_170) ?v_169) ?v_150) ?v_160) ?v_161) ?v_162)) (and (and (and (and (and (and (and (= x_30 5) ?v_153) ?v_170) (or (or ?v_159 ?v_157) ?v_156)) (= x_22 (ite ?v_159 40 x_13))) ?v_171) ?v_158) ?v_162)) (and (and (and (and (and (and (and (and (and (and (= x_30 6) ?v_153) ?v_170) ?v_163) ?v_164) ?v_165) ?v_172) ?v_167) ?v_160) ?v_161) ?v_158)) (and (and (and (and (and (and (and (and (and (and (and (= x_30 7) ?v_153) ?v_170) ?v_163) ?v_164) ?v_165) ?v_166) ?v_144) ?v_138) ?v_167) ?v_160) ?v_161)) (and (and (and (and (and (and (and (and (and (= x_30 8) ?v_173) ?v_182) (or ?v_176 ?v_175)) (or ?v_177 ?v_175)) (or (and ?v_176 ?v_177) (and (not (< (* x_29 2) (- (* x_16 2) x_18))) (<= x_29 ?v_178)))) (= x_26 (ite ?v_180 x_17 ?v_179))) (= x_22 (ite ?v_180 x_13 ?v_181))) (= x_25 (ite ?v_180 x_16 x_29))) ?v_158))) ?v_182) (= x_19 (ite ?v_203 0 1))) (not (< x_20 0))) (or (or (or (or (or (or (or (or (and (and (and (and (and (and (and (and (and (and (= x_21 0) ?v_183) ?v_184) ?v_193) ?v_194) ?v_195) ?v_196) ?v_197) ?v_190) ?v_191) ?v_188) (and (and (and (and (and (and (and (= x_21 1) ?v_183) ?v_184) (or (or ?v_185 ?v_187) ?v_186)) (= x_13 (ite ?v_185 0 x_3))) ?v_201) ?v_188) ?v_192)) (and (and (and (and (and (and (and (= x_21 2) ?v_183) ?v_184) ?v_199) ?v_180) ?v_190) ?v_191) ?v_192)) (and (and (and (and (and (and (and (and (and (and (and (= x_21 3) ?v_183) ?v_184) ?v_193) ?v_194) ?v_195) ?v_202) x_14) ?v_168) ?v_197) ?v_190) ?v_191)) (and (and (and (and (and (and (and (= x_21 4) ?v_183) ?v_200) ?v_199) ?v_180) ?v_190) ?v_191) ?v_192)) (and (and (and (and (and (and (and (= x_21 5) ?v_183) ?v_200) (or (or ?v_189 ?v_187) ?v_186)) (= x_13 (ite ?v_189 40 x_3))) ?v_201) ?v_188) ?v_192)) (and (and (and (and (and (and (and (and (and (and (= x_21 6) ?v_183) ?v_200) ?v_193) ?v_194) ?v_195) ?v_202) ?v_197) ?v_190) ?v_191) ?v_188)) (and (and (and (and (and (and (and (and (and (and (and (= x_21 7) ?v_183) ?v_200) ?v_193) ?v_194) ?v_195) ?v_196) ?v_174) ?v_168) ?v_197) ?v_190) ?v_191)) (and (and (and (and (and (and (and (and (and (= x_21 8) ?v_203) ?v_212) (or ?v_206 ?v_205)) (or ?v_207 ?v_205)) (or (and ?v_206 ?v_207) (and (not (< (* x_20 2) (- (* x_6 2) x_9))) (<= x_20 ?v_208)))) (= x_17 (ite ?v_210 x_7 ?v_209))) (= x_13 (ite ?v_210 x_3 ?v_211))) (= x_16 (ite ?v_210 x_6 x_20))) ?v_188))) ?v_212) (= x_10 (ite x_8 0 1))) (not (< x_11 0))) (or (or (or (or (or (or (or (or (and (and (and (and (and (and (and (and (and (and (= x_12 0) ?v_214) ?v_213) ?v_222) ?v_223) ?v_224) ?v_225) ?v_226) ?v_220) ?v_221) ?v_218) (and (and (and (and (and (and (and (= x_12 1) ?v_214) ?v_213) (or (or ?v_215 ?v_217) ?v_216)) (= x_3 (ite ?v_215 0 20))) ?v_230) ?v_218) ?v_193)) (and (and (and (and (and (and (and (= x_12 2) ?v_214) ?v_213) ?v_228) ?v_210) ?v_220) ?v_221) ?v_193)) (and (and (and (and (and (and (and (and (and (and (and (= x_12 3) ?v_214) ?v_213) ?v_222) ?v_223) ?v_224) ?v_231) x_4) ?v_198) ?v_226) ?v_220) ?v_221)) (and (and (and (and (and (and (and (= x_12 4) ?v_214) ?v_229) ?v_228) ?v_210) ?v_220) ?v_221) ?v_193)) (and (and (and (and (and (and (and (= x_12 5) ?v_214) ?v_229) (or (or ?v_219 ?v_217) ?v_216)) (= x_3 (ite ?v_219 40 20))) ?v_230) ?v_218) ?v_193)) (and (and (and (and (and (and (and (and (and (and (= x_12 6) ?v_214) ?v_229) ?v_222) ?v_223) ?v_224) ?v_231) ?v_226) ?v_220) ?v_221) ?v_218)) (and (and (and (and (and (and (and (and (and (and (and (= x_12 7) ?v_214) ?v_229) ?v_222) ?v_223) ?v_224) ?v_225) ?v_204) ?v_198) ?v_226) ?v_220) ?v_221)) (and (and (and (and (and (and (and (and (and (= x_12 8) x_8) (not (< x_2 0))) (or ?v_234 ?v_233)) (or ?v_235 ?v_233)) (or (and ?v_234 ?v_235) (and (not (< (* x_11 2) (- (* 10 2) x_2))) (<= x_11 ?v_236)))) (= x_7 (ite ?v_238 2 ?v_237))) (= x_3 (ite ?v_238 20 ?v_239))) (= x_6 (ite ?v_238 10 x_11))) ?v_218))) (or (or (or (or (or (or (or (or (= x_67 x_70) (= x_58 x_61)) (= x_49 x_52)) (= x_40 x_43)) (= x_31 x_34)) (= x_22 x_25)) (= x_13 x_16)) (= x_3 x_6)) (= 20 10))) (or ?v_227 ?v_232)) (or ?v_198 ?v_204)) (or ?v_168 ?v_174)) (or ?v_138 ?v_144)) (or ?v_108 ?v_114)) (or ?v_78 ?v_84)) (or ?v_48 ?v_54)) (or ?v_15 ?v_24)) (or ?v_22 ?v_21)))))))))))))))))))))
(check-sat)
(exit)
